letting n_nurses=25
letting n_days=7
letting n_shift_types=4
letting max_covers=9
letting t_covers=87
letting covers=[9,5,4,0,7,7,3,0,7,3,6,0,2,0,1,0,4,2,1,0,8,6,3,0,2,5,2,0]
letting prefes=[1,3,3,4,2,1,1,2,2,2,2,2,1,3,1,3,3,1,3,4,3,3,3,3,2,1,1,2,1,3,3,3,1,1,1,1,2,1,2,2,1,3,1,3,3,3,3,3,2,1,2,2,1,1,1,1,3,3,3,3,2,1,1,2,2,2,2,2,1,1,1,1,1,3,3,3,3,3,3,3,2,1,1,2,1,3,3,3,2,1,1,2,2,1,2,2,1,3,1,3,3,3,1,3,2,1,2,2,2,1,1,2,3,3,3,3,2,1,1,2,2,1,2,2,1,3,1,3,3,3,1,3,2,3,2,2,2,1,1,2,3,3,3,4,2,1,1,2,2,1,2,2,1,3,1,3,3,3,3,4,3,3,3,3,2,1,1,2,3,1,3,3,1,1,1,1,2,2,1,1,1,3,1,3,3,3,3,3,2,3,2,2,1,1,1,1,1,3,3,3,2,2,2,2,2,2,2,2,2,1,2,1,1,3,3,3,3,3,3,3,2,2,2,2,3,3,1,3,2,2,1,2,1,1,1,1,1,3,1,3,3,3,1,3,2,3,2,2,2,2,1,2,1,3,3,4,2,1,1,2,2,1,2,2,1,3,1,3,3,3,3,4,2,1,2,2,2,1,1,2,3,3,3,3,2,1,1,2,2,1,2,2,1,3,1,3,3,3,1,3,2,3,2,2,2,1,1,2,3,3,1,3,2,2,2,2,2,1,2,2,2,3,2,3,3,1,3,3,2,3,2,2,2,2,2,2,3,1,3,4,2,1,1,2,1,1,2,2,1,3,1,3,3,3,3,4,2,1,2,2,2,1,1,2,3,3,3,3,2,1,1,2,2,1,2,2,1,1,1,1,1,3,3,3,2,3,2,2,2,1,1,2,3,3,3,3,2,1,1,2,2,1,1,1,1,3,1,3,3,3,3,3,2,3,2,2,2,1,1,2,3,3,3,3,1,1,2,1,1,1,2,2,2,3,2,3,3,3,3,3,3,3,3,3,1,1,2,1,3,3,3,4,2,1,1,2,2,2,2,2,1,3,1,3,3,3,3,4,2,3,2,2,2,1,1,2,3,3,1,3,2,2,2,2,2,1,2,2,2,3,2,3,3,1,3,3,2,3,2,2,2,2,2,2,3,3,3,3,2,1,1,2,2,1,1,1,1,3,1,3,3,3,3,3,2,3,2,2,2,1,1,2,3,3,3,3,1,1,1,1,2,1,2,2,1,3,1,3,3,3,3,3,2,3,2,2,1,1,1,1,3,3,1,3,2,2,1,2,2,1,2,2,1,3,1,3,3,1,3,3,2,3,2,2,2,2,1,2,3,1,1,3,2,1,1,2,1,1,1,1,1,3,1,3,3,1,1,3,2,3,2,2,2,1,1,2,3,1,3,3,2,1,1,2,2,1,2,2,1,1,1,1,1,3,3,3,2,1,2,2,2,1,1,2,3,1,3,3,2,1,1,2,2,1,2,2,1,1,1,1,1,3,3,3,2,3,2,2,2,1,1,2,3,3,3,3,1,1,2,1,1,1,2,2,2,3,2,3,3,3,3,3,2,3,2,2,1,1,2,1]
letting ub =  276
